100
128
39
49
41
54
27
54
54
49
16
16
14
34
13
40
20
52
26
17
34
13
22
46
13
32
21
44
2
59
5
16
32
24
39
13
15
13
43
31
30
46
15
60
34
23
63
58
60
52
32
55
26
47
25
52
51
50
18
51
13
13
58
52
1
61
16
47
53
35
40
54
16
20
60
24
16
4
62
1
17
56
4
44
1
18
19
51
63
34
28
20
52
41
56
37
43
30
14
11
22
3